[ti. 04. april 18:12:23 +0200 2023]  ./input/alternate_g_np/50-5-2.gcc
Set parameter Username
Academic license - for non-commercial use only - expires 2024-03-28
Set parameter TimeLimit to value 1800
Set parameter PreCrush to value 1
Set parameter LazyConstraints to value 1
Gurobi Optimizer version 10.0.1 build v10.0.1rc0 (linux64)

CPU model: AMD Ryzen 9 5950X 16-Core Processor, instruction set [SSE2|AVX|AVX2]
Thread count: 16 physical cores, 32 logical processors, using up to 32 threads

Optimize a model with 56 rows, 350 columns and 950 nonzeros
Model fingerprint: 0xb2b0b837
Variable types: 0 continuous, 350 integer (350 binary)
Coefficient statistics:
  Matrix range     [1e+00, 1e+00]
  Objective range  [4e+00, 1e+02]
  Bounds range     [1e+00, 1e+00]
  RHS range        [1e+00, 1e+00]
Presolve time: 0.00s
Presolved: 56 rows, 350 columns, 950 nonzeros
Variable types: 0 continuous, 350 integer (350 binary)

Root relaxation: objective 2.856000e+03, 6 iterations, 0.00 seconds (0.00 work units)

    Nodes    |    Current Node    |     Objective Bounds      |     Work
 Expl Unexpl |  Obj  Depth IntInf | Incumbent    BestBd   Gap | It/Node Time

     0     0 2856.00000    0    8          - 2856.00000      -     -    0s
     0     0 2856.00000    0    9          - 2856.00000      -     -    0s
     0     0 2856.00000    0    -          - 2856.00000      -     -    0s
     0     0 2856.00000    0    6          - 2856.00000      -     -    0s
     0     0 2856.00000    0    -          - 2856.00000      -     -    0s
     0     0 2856.00000    0    -          - 2856.00000      -     -    0s
     0     0 2856.00000    0   17          - 2856.00000      -     -    0s
     0     2 2856.00000    0    6          - 2856.00000      -     -    0s
 41078 23356 2759.50000   67   16          - 2856.00000      -  14.4    5s
 72950 45105 2675.00000   73    -          - 2856.00000      -  19.0   10s
*77985 48152              30    2556.0000000 2856.00000  11.7%  19.5   10s
H79155 34568                    2766.0000000 2856.00000  3.25%  19.6   11s
H79790 31376                    2815.0000000 2856.00000  1.46%  19.6   11s
H81320  1473                    2856.0000000 2856.00000  0.00%  19.7   11s

Cutting planes:
  User: 81
  Lazy constraints: 2430

Explored 82570 nodes (1672307 simplex iterations) in 11.66 seconds (5.24 work units)
Thread count was 32 (of 32 available processors)

Solution count 4: 2856 2815 2766 2556 

Optimal solution found (tolerance 1.00e-04)
Best objective 2.856000000000e+03, best bound 2.856000000000e+03, gap 0.0000%

User-callback calls 168502, time in user-callback 2.43 sec
Minimal separator inequalities added: 81498
Indegree inequalities added: 0
Passed solution check
[ti. 04. april 18:12:34 +0200 2023]  done

